
n_res = 6;
rcap = [32, 30, 29, 26, 1379, 1385];
rtype = [1, 1, 1, 1, 2, 2];
n_tasks = 100;
modes =  [{1, 2, 3}, {4, 5, 6}, {7, 8, 9}, {10, 11, 12}, {13, 14, 15}, {16, 17, 18}, {19, 20, 21}, {22, 23, 24}, {25, 26, 27}, {28, 29, 30}, {31, 32, 33}, {34, 35, 36}, {37, 38, 39}, {40, 41, 42}, {43, 44, 45}, {46, 47, 48}, {49, 50, 51}, {52, 53, 54}, {55, 56, 57}, {58, 59, 60}, {61, 62, 63}, {64, 65, 66}, {67, 68, 69}, {70, 71, 72}, {73, 74, 75}, {76, 77, 78}, {79, 80, 81}, {82, 83, 84}, {85, 86, 87}, {88, 89, 90}, {91, 92, 93}, {94, 95, 96}, {97, 98, 99}, {100, 101, 102}, {103, 104, 105}, {106, 107, 108}, {109, 110, 111}, {112, 113, 114}, {115, 116, 117}, {118, 119, 120}, {121, 122, 123}, {124, 125, 126}, {127, 128, 129}, {130, 131, 132}, {133, 134, 135}, {136, 137, 138}, {139, 140, 141}, {142, 143, 144}, {145, 146, 147}, {148, 149, 150}, {151, 152, 153}, {154, 155, 156}, {157, 158, 159}, {160, 161, 162}, {163, 164, 165}, {166, 167, 168}, {169, 170, 171}, {172, 173, 174}, {175, 176, 177}, {178, 179, 180}, {181, 182, 183}, {184, 185, 186}, {187, 188, 189}, {190, 191, 192}, {193, 194, 195}, {196, 197, 198}, {199, 200, 201}, {202, 203, 204}, {205, 206, 207}, {208, 209, 210}, {211, 212, 213}, {214, 215, 216}, {217, 218, 219}, {220, 221, 222}, {223, 224, 225}, {226, 227, 228}, {229, 230, 231}, {232, 233, 234}, {235, 236, 237}, {238, 239, 240}, {241, 242, 243}, {244, 245, 246}, {247, 248, 249}, {250, 251, 252}, {253, 254, 255}, {256, 257, 258}, {259, 260, 261}, {262, 263, 264}, {265, 266, 267}, {268, 269, 270}, {271, 272, 273}, {274, 275, 276}, {277, 278, 279}, {280, 281, 282}, {283, 284, 285}, {286, 287, 288}, {289, 290, 291}, {292, 293, 294}, {295, 296, 297}, {298, 299, 300}];
succ =  [{12, 11, 10}, {28, 24, 23, 22, 15, 12}, {28, 24, 20, 10}, {20, 16, 10}, {40, 28, 26, 23, 22, 21, 20, 18, 13}, {29, 26, 24, 23, 22, 21, 20, 18}, {35, 27, 26, 25, 24, 23, 21, 19}, {28, 25, 24, 22, 21, 19, 18}, {35, 27, 26, 24, 23, 21, 19}, {31, 23, 22, 18, 15}, {47, 43, 40, 39, 35, 33, 31, 25, 23}, {39, 35, 26, 20}, {43, 39, 35, 34, 32, 31, 30, 29, 27}, {35, 27, 16}, {47, 40, 35, 29, 25, 21}, {47, 33, 31, 21}, {47, 40, 29, 21}, {47, 43, 42, 41, 39, 37, 35, 34, 32, 30}, {47, 39, 34, 33, 32, 31, 29}, {41, 34, 32, 31, 30, 27}, {43, 42, 41, 37, 34, 32, 30}, {51, 43, 35, 33, 30}, {42, 41, 34, 32, 30}, {49, 42, 40, 39, 37, 36, 34}, {37, 34, 32, 30}, {49, 43, 42, 37, 36, 34}, {51, 47, 36, 33}, {60, 51, 41, 37, 36}, {60, 45, 41, 36}, {60, 52, 49, 45, 36}, {60, 52, 51, 49, 36}, {60, 52, 51, 50, 45, 38}, {45, 42, 38, 37}, {52, 50, 45, 38}, {60, 52, 38}, {50, 38}, {63, 57, 54, 53, 52, 46, 44}, {63, 57, 54, 53, 46, 44}, {58, 57, 50, 48, 46, 45}, {58, 57, 56, 54, 53, 52, 48}, {59, 57, 56, 54, 53, 52, 50, 49}, {74, 65, 64, 62, 60, 59, 57, 56, 55, 54}, {74, 67, 64, 59, 58, 57, 53, 52}, {58, 56, 55, 48}, {74, 67, 62, 59, 55, 53}, {74, 67, 66, 65, 62, 56, 55}, {83, 74, 70, 68, 67, 66, 64, 62, 61}, {74, 71, 70, 67, 66, 64, 61, 59}, {74, 72, 71, 68, 67, 66, 55}, {83, 74, 72, 70, 68, 67, 66, 61}, {83, 76, 73, 71, 70, 66, 65, 59}, {68, 62, 55}, {83, 76, 72, 71, 70, 69, 68, 66, 65}, {78, 73, 71, 70, 68, 67}, {83, 76, 70, 69, 61}, {76, 72, 70, 68, 61}, {85, 72, 71, 66}, {92, 84, 82, 78, 76, 75, 73, 72}, {92, 91, 90, 78, 75, 72, 68}, {85, 84, 82, 75, 73, 72, 71}, {92, 84, 82, 79, 78, 75, 73}, {90, 89, 85, 84, 82, 75, 71}, {92, 91, 84, 76, 75, 74, 72}, {89, 84, 82, 76, 69}, {92, 90, 89, 84, 82, 79, 78, 75}, {92, 90, 89, 84, 82, 78, 75}, {90, 89, 84, 82, 76, 75}, {100, 89, 85, 84, 82, 81, 79, 77}, {100, 92, 91, 90, 81, 79, 77}, {92, 91, 89, 84, 81, 77}, {100, 92, 91, 86, 81, 80, 79}, {100, 89, 81, 77}, {99, 93, 91, 90, 89, 87, 86, 81}, {89, 86, 82, 81, 80}, {81, 77}, {100, 99, 98, 97, 88, 87, 85}, {98, 97, 93, 86, 80}, {100, 97, 93, 80}, {99, 98, 93, 88, 87}, {99, 94, 87}, {98, 97, 95, 94}, {99, 98, 96, 95}, {86}, {98, 97, 96}, {95, 93}, {88}, {96, 95}, {95, 94}, {97, 96}, {97, 94}, {95, 94}, {93}, {94}, {}, {}, {}, {}, {}, {}, {}];
n_opt = 300;
dur = [3, 10, 12, 15, 19, 26, 7, 13, 26, 12, 13, 26, 9, 10, 28, 3, 26, 27, 12, 16, 21, 11, 14, 21, 5, 19, 22, 4, 5, 23, 2, 9, 20, 11, 16, 18, 1, 15, 23, 20, 23, 26, 3, 7, 25, 11, 19, 21, 5, 20, 21, 3, 26, 29, 2, 20, 26, 21, 22, 30, 16, 21, 27, 14, 18, 25, 12, 18, 29, 16, 21, 26, 10, 16, 17, 8, 19, 22, 1, 4, 28, 6, 9, 10, 6, 7, 9, 9, 21, 24, 7, 10, 19, 1, 9, 10, 4, 11, 12, 6, 22, 24, 16, 23, 29, 1, 11, 21, 13, 18, 25, 18, 20, 21, 4, 21, 27, 6, 21, 26, 14, 18, 29, 9, 12, 27, 11, 20, 24, 6, 8, 29, 14, 22, 26, 3, 15, 17, 7, 18, 28, 1, 5, 30, 11, 27, 28, 8, 10, 21, 6, 13, 30, 5, 8, 20, 8, 17, 18, 2, 15, 28, 13, 20, 27, 10, 12, 24, 10, 25, 26, 7, 15, 27, 7, 12, 18, 3, 7, 14, 4, 25, 30, 11, 12, 20, 8, 26, 29, 5, 15, 25, 5, 19, 23, 2, 8, 18, 5, 6, 9, 11, 21, 22, 18, 21, 30, 12, 13, 22, 15, 24, 26, 14, 20, 25, 1, 2, 29, 3, 16, 19, 8, 15, 22, 6, 21, 26, 2, 3, 28, 1, 10, 25, 1, 23, 24, 10, 13, 18, 1, 22, 24, 2, 4, 11, 4, 11, 29, 17, 18, 26, 1, 2, 9, 7, 8, 20, 1, 10, 29, 9, 12, 25, 6, 27, 30, 5, 6, 21, 5, 23, 25, 5, 23, 24, 12, 21, 28, 5, 6, 22, 4, 5, 7, 20, 26, 29, 3, 22, 23, 6, 15, 29, 8, 12, 19, 16, 17, 18];
rreq = [|3, 3, 2, 5, 3, 3, 3, 3, 2, 4, 3, 3, 5, 4, 4, 5, 3, 3, 3, 2, 2, 4, 3, 3, 4, 4, 4, 3, 2, 2, 2, 2, 2, 3, 3, 2, 2, 2, 2, 3, 3, 2, 5, 4, 4, 4, 2, 2, 2, 2, 2, 4, 4, 3, 4, 4, 4, 4, 3, 2, 2, 2, 2, 3, 2, 1, 5, 3, 2, 5, 4, 3, 4, 3, 2, 5, 4, 4, 3, 2, 2, 4, 4, 4, 3, 2, 2, 3, 1, 1, 4, 2, 2, 1, 1, 1, 4, 3, 3, 3, 2, 1, 3, 3, 3, 1, 1, 1, 5, 3, 2, 3, 1, 1, 3, 2, 2, 5, 5, 5, 1, 1, 1, 4, 3, 2, 2, 1, 1, 4, 4, 4, 2, 2, 2, 3, 2, 2, 4, 3, 2, 4, 3, 2, 1, 1, 1, 4, 3, 2, 3, 3, 2, 2, 2, 2, 3, 2, 2, 4, 4, 2, 3, 2, 2, 4, 3, 3, 4, 4, 4, 2, 2, 1, 4, 4, 3, 2, 2, 2, 5, 5, 5, 2, 2, 2, 1, 1, 1, 1, 1, 1, 5, 4, 4, 2, 2, 1, 4, 4, 4, 2, 2, 2, 5, 2, 2, 4, 4, 3, 4, 3, 3, 4, 2, 1, 1, 1, 1, 3, 3, 3, 3, 2, 2, 5, 2, 1, 5, 4, 3, 2, 1, 1, 4, 4, 4, 5, 4, 2, 5, 5, 5, 1, 1, 1, 2, 2, 2, 5, 4, 3, 1, 1, 1, 5, 4, 3, 4, 3, 2, 4, 3, 3, 5, 4, 4, 2, 2, 1, 2, 2, 2, 4, 2, 2, 4, 3, 2, 4, 3, 3, 2, 2, 2, 1, 1, 1, 3, 2, 1, 4, 4, 2, 3, 1, 1, 2, 2, 1
 |4, 4, 2, 4, 4, 2, 2, 2, 2, 4, 3, 2, 4, 2, 2, 4, 2, 1, 5, 4, 2, 5, 4, 3, 2, 1, 1, 2, 2, 2, 3, 2, 2, 4, 2, 2, 4, 3, 2, 4, 3, 2, 2, 1, 1, 1, 1, 1, 1, 1, 1, 1, 1, 1, 4, 3, 2, 4, 2, 2, 3, 2, 2, 3, 2, 1, 5, 3, 3, 3, 2, 2, 5, 5, 5, 3, 3, 2, 5, 4, 2, 2, 2, 2, 3, 2, 2, 4, 4, 3, 4, 4, 4, 1, 1, 1, 3, 2, 1, 4, 2, 2, 3, 3, 2, 1, 1, 1, 4, 4, 4, 5, 3, 3, 3, 1, 1, 3, 3, 3, 4, 4, 3, 4, 3, 3, 1, 1, 1, 4, 4, 4, 2, 2, 2, 3, 2, 2, 4, 3, 3, 3, 2, 2, 3, 2, 1, 3, 2, 2, 2, 2, 1, 3, 1, 1, 2, 2, 2, 2, 1, 1, 5, 4, 3, 4, 2, 2, 4, 3, 3, 2, 2, 2, 5, 4, 4, 4, 3, 3, 1, 1, 1, 3, 2, 2, 4, 3, 1, 4, 4, 4, 2, 2, 2, 3, 3, 3, 3, 2, 2, 2, 2, 2, 4, 4, 4, 2, 1, 1, 2, 1, 1, 3, 3, 3, 2, 1, 1, 4, 3, 2, 5, 4, 2, 4, 3, 3, 4, 2, 1, 2, 1, 1, 2, 1, 1, 3, 1, 1, 4, 4, 4, 5, 3, 3, 2, 1, 1, 4, 3, 3, 4, 3, 3, 3, 2, 2, 4, 4, 2, 2, 2, 2, 3, 2, 2, 4, 3, 3, 5, 5, 5, 3, 3, 1, 4, 3, 3, 3, 2, 2, 3, 3, 3, 3, 2, 2, 4, 3, 3, 3, 2, 2, 4, 4, 4, 1, 1, 1
 |2, 2, 2, 3, 3, 3, 1, 1, 1, 1, 1, 1, 3, 3, 3, 4, 3, 2, 2, 2, 2, 5, 5, 5, 2, 2, 1, 3, 2, 2, 2, 1, 1, 3, 3, 3, 3, 1, 1, 5, 4, 4, 3, 3, 3, 2, 2, 2, 4, 4, 4, 5, 3, 3, 3, 3, 3, 4, 4, 4, 2, 2, 2, 4, 3, 1, 4, 3, 1, 4, 2, 2, 3, 2, 1, 5, 5, 5, 4, 3, 3, 2, 2, 2, 4, 3, 3, 4, 3, 3, 4, 2, 2, 3, 3, 1, 1, 1, 1, 2, 2, 2, 2, 2, 2, 5, 5, 5, 2, 2, 2, 4, 4, 4, 4, 4, 3, 3, 3, 1, 4, 3, 3, 3, 3, 3, 3, 3, 3, 2, 2, 2, 2, 2, 2, 5, 4, 3, 3, 3, 3, 3, 2, 2, 5, 3, 3, 5, 3, 1, 2, 2, 1, 2, 1, 1, 2, 1, 1, 2, 1, 1, 4, 2, 2, 3, 3, 2, 4, 3, 1, 4, 4, 4, 3, 3, 2, 5, 4, 3, 3, 3, 3, 5, 4, 4, 4, 3, 3, 2, 1, 1, 3, 3, 1, 1, 1, 1, 4, 2, 1, 4, 4, 4, 4, 3, 2, 3, 2, 1, 4, 3, 2, 3, 3, 3, 2, 2, 2, 5, 2, 1, 3, 1, 1, 4, 3, 2, 3, 2, 2, 4, 4, 4, 5, 4, 3, 2, 1, 1, 4, 3, 3, 5, 4, 3, 3, 3, 1, 3, 2, 2, 3, 3, 3, 2, 2, 2, 4, 3, 3, 4, 3, 2, 4, 3, 3, 5, 4, 3, 3, 2, 2, 4, 3, 2, 3, 1, 1, 3, 3, 3, 4, 3, 2, 4, 4, 4, 5, 4, 3, 1, 1, 1, 4, 3, 3, 5, 2, 2
 |4, 3, 2, 1, 1, 1, 4, 2, 1, 2, 2, 2, 4, 4, 4, 4, 4, 4, 4, 4, 4, 3, 3, 3, 4, 4, 4, 3, 2, 1, 4, 3, 3, 5, 5, 5, 5, 3, 1, 2, 2, 2, 4, 4, 3, 4, 4, 4, 2, 2, 1, 4, 4, 4, 3, 3, 1, 3, 3, 2, 4, 3, 2, 3, 3, 3, 2, 2, 2, 3, 3, 2, 5, 4, 4, 5, 4, 4, 4, 4, 4, 5, 5, 5, 2, 2, 2, 3, 3, 3, 5, 4, 3, 5, 3, 3, 5, 5, 5, 2, 2, 2, 1, 1, 1, 5, 4, 4, 2, 1, 1, 3, 3, 3, 4, 4, 2, 5, 4, 4, 1, 1, 1, 2, 1, 1, 4, 3, 2, 4, 3, 1, 1, 1, 1, 5, 5, 5, 5, 3, 3, 2, 2, 2, 5, 5, 5, 3, 1, 1, 2, 2, 2, 3, 3, 1, 2, 2, 2, 3, 3, 3, 2, 2, 2, 3, 3, 3, 2, 2, 2, 1, 1, 1, 2, 2, 2, 5, 5, 5, 2, 1, 1, 4, 3, 3, 4, 3, 3, 3, 3, 3, 2, 2, 2, 1, 1, 1, 2, 2, 1, 1, 1, 1, 5, 5, 5, 5, 4, 4, 2, 1, 1, 2, 2, 2, 3, 2, 2, 3, 1, 1, 4, 3, 2, 2, 1, 1, 4, 2, 2, 3, 3, 2, 2, 2, 2, 4, 4, 4, 4, 4, 4, 5, 5, 5, 5, 5, 5, 2, 2, 1, 4, 3, 3, 5, 2, 2, 5, 3, 3, 2, 1, 1, 3, 2, 2, 2, 2, 2, 3, 3, 3, 4, 4, 4, 4, 3, 2, 3, 3, 2, 3, 3, 3, 3, 2, 2, 3, 2, 1, 2, 2, 2, 3, 3, 2, 5, 4, 4
 |18, 16, 14, 11, 10, 10, 5, 5, 3, 22, 16, 11, 21, 13, 7, 8, 4, 4, 19, 14, 14, 6, 4, 3, 21, 19, 19, 27, 19, 9, 16, 14, 9, 19, 12, 10, 23, 22, 21, 29, 25, 25, 27, 20, 10, 28, 25, 20, 10, 10, 7, 18, 10, 6, 15, 12, 7, 27, 15, 8, 30, 28, 28, 25, 21, 18, 28, 27, 27, 20, 12, 10, 29, 26, 25, 16, 14, 10, 28, 16, 8, 18, 16, 16, 25, 25, 21, 10, 10, 4, 27, 20, 17, 25, 21, 18, 19, 11, 7, 21, 17, 15, 17, 15, 13, 3, 3, 2, 14, 13, 13, 25, 21, 16, 19, 17, 8, 30, 21, 18, 19, 14, 9, 28, 25, 21, 9, 8, 8, 8, 5, 2, 26, 14, 13, 21, 19, 17, 21, 18, 17, 12, 11, 11, 9, 6, 6, 21, 21, 21, 23, 16, 11, 27, 18, 11, 24, 16, 14, 25, 19, 10, 29, 27, 23, 9, 6, 5, 18, 10, 8, 28, 19, 5, 14, 8, 7, 21, 20, 17, 30, 26, 23, 13, 11, 9, 18, 13, 10, 23, 19, 12, 4, 2, 1, 17, 14, 4, 16, 15, 14, 16, 12, 9, 24, 23, 23, 18, 13, 9, 14, 11, 10, 24, 19, 17, 22, 18, 13, 23, 21, 21, 20, 20, 20, 14, 13, 6, 5, 5, 5, 14, 12, 7, 18, 16, 8, 21, 19, 14, 22, 13, 7, 25, 23, 18, 5, 4, 3, 11, 9, 7, 7, 4, 3, 26, 21, 20, 7, 6, 6, 22, 19, 13, 21, 20, 14, 17, 15, 14, 12, 7, 2, 27, 21, 7, 12, 9, 8, 27, 24, 20, 24, 22, 18, 19, 18, 18, 19, 16, 14, 23, 20, 17, 19, 15, 10, 11, 10, 4
 |27, 25, 22, 27, 26, 24, 25, 20, 13, 24, 20, 13, 24, 20, 19, 23, 17, 14, 5, 3, 3, 15, 12, 9, 25, 17, 13, 26, 16, 15, 19, 16, 13, 23, 22, 18, 5, 3, 1, 18, 15, 6, 22, 12, 12, 30, 18, 18, 27, 26, 24, 21, 20, 14, 19, 17, 15, 16, 11, 10, 15, 12, 5, 3, 2, 2, 27, 27, 26, 12, 7, 5, 23, 20, 20, 16, 11, 7, 12, 11, 11, 15, 8, 7, 23, 21, 12, 9, 9, 8, 13, 13, 13, 23, 21, 19, 19, 17, 4, 17, 12, 12, 17, 14, 10, 16, 14, 14, 14, 10, 8, 23, 13, 3, 25, 21, 17, 23, 12, 10, 14, 12, 12, 21, 10, 4, 29, 28, 28, 25, 20, 8, 10, 6, 6, 25, 24, 21, 26, 19, 19, 15, 14, 14, 24, 16, 14, 18, 9, 8, 20, 16, 14, 16, 13, 12, 28, 18, 16, 23, 18, 9, 18, 16, 15, 20, 12, 9, 27, 27, 26, 28, 14, 8, 10, 9, 7, 15, 14, 9, 14, 14, 14, 19, 15, 13, 25, 23, 22, 13, 10, 5, 27, 21, 18, 17, 16, 14, 9, 8, 5, 7, 7, 6, 14, 13, 13, 20, 11, 3, 24, 20, 16, 14, 13, 10, 16, 14, 14, 26, 14, 8, 28, 13, 9, 13, 13, 12, 16, 14, 14, 23, 18, 9, 7, 6, 3, 27, 21, 11, 14, 7, 7, 16, 15, 5, 10, 10, 10, 23, 18, 15, 11, 10, 9, 28, 26, 22, 29, 28, 25, 15, 14, 11, 13, 10, 8, 14, 11, 8, 10, 10, 10, 24, 21, 20, 20, 20, 20, 20, 18, 18, 10, 8, 6, 28, 23, 17, 19, 18, 5, 21, 17, 14, 15, 12, 8, 15, 15, 11|];